# LAMMPS input script template for MTP active learning
units           metal
atom_style      atomic

read_data       {INPUT_CFG} # Читаем одну конфигурацию
pair_style      mlip mlip.ini
pair_coeff      * *

velocity        all create {TEMPERATURE} {SEED} mom yes rot yes dist gaussian
fix             1 all nvt temp {TEMPERATURE} {TEMPERATURE} 0.1
timestep        0.001

thermo          100
thermo_style    custom step temp pe etotal press
dump            1 all custom 100 dump.xyz id type x y z

run             {STEPS}
